
******************************************************************************
This program contains Ipopt, a library for large-scale nonlinear optimization.
 Ipopt is released as open source code under the Eclipse Public License (EPL).
         For more information visit http://projects.coin-or.org/Ipopt
******************************************************************************

This is Ipopt version 3.12.6, running with linear solver ma57.

Number of nonzeros in equality constraint Jacobian...:      126
Number of nonzeros in inequality constraint Jacobian.:     6027
Number of nonzeros in Lagrangian Hessian.............:     2709

Reallocating memory for MA57: lfact (87609)
Total number of variables............................:      127
                     variables with only lower bounds:        0
                variables with lower and upper bounds:        0
                     variables with only upper bounds:        0
Total number of equality constraints.................:       42
Total number of inequality constraints...............:      861
        inequality constraints with only lower bounds:        0
   inequality constraints with lower and upper bounds:        0
        inequality constraints with only upper bounds:      861

iter    objective    inf_pr   inf_du lg(mu)  ||d||  lg(rg) alpha_du alpha_pr  ls
   0  0.0000000e+00 1.00e+00 1.00e+00  -1.0 0.00e+00    -  0.00e+00 0.00e+00   0
   1  1.2451842e-03 1.00e+00 5.03e+02  -1.0 1.00e+00  -4.0 2.33e-02 1.03e-02f  1
   2  1.4752478e-03 1.00e+00 4.77e+06  -1.0 2.84e+03   7.8 2.80e-07 6.58e-07f  4
Reallocating memory for MA57: lfact (1704431)
   3r 1.4752478e-03 1.00e+00 9.99e+02  -0.0 0.00e+00   9.2 0.00e+00 2.85e-07R  9
   4r 4.4622698e-03 1.00e+00 9.97e+02  -0.0 2.13e+02    -  7.24e-04 2.24e-03f  1
   5r 5.8618305e-03 1.00e+00 9.96e+02  -0.0 1.41e+02   0.0 1.37e-03 1.01e-03f  1
   6r 1.1051266e-02 1.01e+00 9.92e+02  -0.0 7.80e+01   0.4 6.05e-03 3.63e-03f  1
   7r 2.1109670e-02 1.02e+00 9.86e+02  -0.0 2.18e+01   0.9 1.51e-02 7.06e-03f  1
   8r 3.2740151e-02 1.01e+00 9.75e+02  -0.0 6.78e+00   1.3 7.05e-03 1.14e-02f  1
   9r 4.4288382e-02 1.00e+00 9.58e+02  -0.0 3.16e+00   1.7 8.00e-02 2.21e-02f  1
iter    objective    inf_pr   inf_du lg(mu)  ||d||  lg(rg) alpha_du alpha_pr  ls
  10r 5.5934837e-02 1.00e+00 9.00e+02  -0.0 1.30e+00   2.1 1.65e-01 6.50e-02f  1
  11r 6.6869805e-02 9.99e-01 7.63e+02  -0.0 5.62e-01   2.6 8.51e-01 1.59e-01f  1
  12r 7.9520142e-02 9.98e-01 6.82e+02  -0.0 1.90e+00   2.1 2.21e-01 1.36e-01f  1
  13r 8.7619182e-02 9.95e-01 6.73e+02  -0.0 1.29e+00   2.5 8.69e-01 1.27e-01f  1
  14r 9.3295165e-02 9.94e-01 4.82e+02  -0.0 9.74e-02   2.9 1.00e+00 2.02e-01f  1
  15r 1.2025366e-01 9.68e-01 3.95e+02  -0.0 5.25e-01   2.5 3.18e-01 2.25e-01f  1
  16r 1.6471597e-01 9.56e-01 3.21e+02  -0.0 1.87e-01   2.9 1.54e-01 7.75e-01f  1
  17r 1.7468986e-01 9.54e-01 2.44e+02  -0.0 1.54e-01   3.3 3.12e-01 3.22e-01f  1
  18r 1.9408767e-01 9.55e-01 3.14e+02  -0.0 1.20e+01   2.8 3.35e-03 9.85e-03f  1
  19r 2.2080689e-01 9.46e-01 3.84e+02  -0.0 2.80e-01   3.3 5.61e-01 4.07e-01f  1
iter    objective    inf_pr   inf_du lg(mu)  ||d||  lg(rg) alpha_du alpha_pr  ls
  20r 2.4978767e-01 9.38e-01 5.33e+02  -0.0 1.11e-01   3.7 3.73e-01 1.00e+00f  1
  21r 2.6833070e-01 9.31e-01 6.19e+02  -0.0 8.10e-01   3.2 1.51e-01 1.14e-01f  1
  22r 3.1869900e-01 8.99e-01 8.29e+02  -0.0 1.95e-01   3.6 4.02e-01 1.00e+00f  1
  23  3.2209444e-01 8.95e-01 5.50e+06  -1.0 2.29e+00   8.7 3.85e-02 4.82e-03h  1
  24  3.2212697e-01 8.95e-01 5.51e+06  -1.0 2.28e+00   8.2 2.37e-01 4.61e-05h  1
  25  3.2244373e-01 8.94e-01 5.57e+06  -1.0 2.36e+00   7.7 2.80e-02 4.44e-04h  1
  26  3.2264711e-01 8.94e-01 5.12e+07  -1.0 2.86e+00   7.3 2.94e-01 2.68e-04h  1
  27  3.2655000e-01 8.91e-01 4.43e+07  -1.0 4.26e+00   7.7 2.57e-03 2.95e-03f  1
  28  3.2970649e-01 8.89e-01 3.73e+08  -1.0 4.59e+00   8.1 1.18e-02 2.70e-03f  1
  29  3.3402733e-01 8.85e-01 3.15e+08  -1.0 4.65e+00   8.5 3.42e-03 4.49e-03f  1
iter    objective    inf_pr   inf_du lg(mu)  ||d||  lg(rg) alpha_du alpha_pr  ls
  30  3.3406303e-01 8.85e-01 3.14e+08  -1.0 3.34e+00   9.0 2.74e-05 4.16e-05h  1
  31r 3.3406303e-01 8.85e-01 1.00e+03  -0.1 0.00e+00   8.5 0.00e+00 3.14e-07R  3
  32r 6.1071701e-01 5.74e-01 9.99e+02  -0.1 9.29e+02    -  7.86e-04 1.04e-03f  1
  33  6.1072527e-01 5.74e-01 8.67e+02  -1.0 4.75e-01   8.0 7.46e-06 1.77e-05h  1
  34r 6.1072527e-01 5.74e-01 9.99e+02  -0.2 0.00e+00   7.5 0.00e+00 1.01e-07R  2
  35r 7.9224336e-01 3.80e-01 9.98e+02  -0.2 2.50e+02    -  9.22e-06 9.27e-04f  1
  36  1.0768750e+00 6.25e-02 4.63e+06  -1.0 3.73e-01   7.1 6.12e-03 1.00e+00f  1
  37  1.0729515e+00 4.22e-03 2.93e+06  -1.0 9.55e-02   7.5 5.98e-01 1.00e+00h  1
  38  1.0727328e+00 1.45e-05 8.20e+04  -1.0 5.03e-03   7.0 1.00e+00 1.00e+00h  1
  39  1.0727327e+00 2.37e-10 5.08e+01  -1.0 1.28e-05   6.5 1.00e+00 1.00e+00h  1
iter    objective    inf_pr   inf_du lg(mu)  ||d||  lg(rg) alpha_du alpha_pr  ls
  40  1.0727338e+00 1.13e-12 1.29e+00  -1.0 1.14e-06   6.1 1.00e+00 1.00e+00f  1
  41  1.0727372e+00 1.02e-11 1.29e+00  -1.0 3.41e-06   5.6 1.00e+00 1.00e+00f  1
  42  1.0727472e+00 9.17e-11 1.29e+00  -1.0 1.02e-05   5.1 1.00e+00 1.00e+00f  1
  43  1.0727775e+00 8.25e-10 1.29e+00  -1.0 3.07e-05   4.6 1.00e+00 1.00e+00f  1
  44  1.0728681e+00 7.40e-09 1.29e+00  -1.0 9.19e-05   4.1 1.00e+00 1.00e+00f  1
  45  1.0731390e+00 6.61e-08 1.28e+00  -1.0 2.75e-04   3.7 1.00e+00 1.00e+00f  1
  46  1.0739432e+00 5.80e-07 1.27e+00  -1.0 8.14e-04   3.2 1.00e+00 1.00e+00f  1
  47  1.0762831e+00 4.86e-06 1.22e+00  -1.0 2.35e-03   2.7 1.00e+00 1.00e+00f  1
  48  1.0827400e+00 3.59e-05 1.12e+00  -1.0 6.46e-03   2.2 1.00e+00 1.00e+00f  1
  49  1.0986654e+00 2.00e-04 9.19e-01  -1.0 1.59e-02   1.8 1.00e+00 1.00e+00f  1
iter    objective    inf_pr   inf_du lg(mu)  ||d||  lg(rg) alpha_du alpha_pr  ls
  50  1.1053583e+00 2.91e-05 1.29e-01  -1.7 6.69e-03   1.3 1.00e+00 1.00e+00f  1
  51  1.1084606e+00 6.67e-06 2.00e-02  -2.5 3.12e-03   0.8 1.00e+00 1.00e+00f  1
  52  1.1082846e+00 1.44e-06 2.41e-03  -3.8 1.13e-03   0.3 1.00e+00 1.00e+00h  1
  53  1.1077239e+00 1.40e-05 2.49e-03  -3.8 3.50e-03  -0.1 1.00e+00 1.00e+00h  1
  54  1.1060917e+00 1.32e-04 2.56e-03  -3.8 1.08e-02  -0.6 1.00e+00 1.00e+00h  1
  55  1.1016046e+00 1.35e-03 2.75e-03  -3.8 3.47e-02  -1.1 1.00e+00 1.00e+00h  1
  56  1.0999061e+00 1.25e-04 2.44e-03  -3.8 1.15e-02  -0.7 1.00e+00 1.00e+00h  1
  57  1.0955465e+00 1.42e-03 2.62e-03  -3.8 3.72e-02  -1.2 1.00e+00 1.00e+00h  1
  58  1.0939126e+00 1.32e-04 2.31e-03  -3.8 1.23e-02  -0.7 1.00e+00 1.00e+00h  1
  59  1.0898590e+00 1.38e-03 2.39e-03  -3.8 3.83e-02  -1.2 1.00e+00 1.00e+00h  1
iter    objective    inf_pr   inf_du lg(mu)  ||d||  lg(rg) alpha_du alpha_pr  ls
  60  1.0883440e+00 1.30e-04 2.10e-03  -3.8 1.26e-02  -0.8 1.00e+00 1.00e+00h  1
  61  1.0847149e+00 2.21e-03 2.11e-03  -3.8 3.80e-02  -1.3 1.00e+00 1.00e+00h  1
  62  1.0833415e+00 2.06e-04 1.98e-03  -3.8 1.34e-02  -0.8 1.00e+00 1.00e+00h  1
  63  1.0802114e+00 3.05e-03 2.04e-03  -3.8 4.13e-02  -1.3 1.00e+00 1.00e+00h  1
  64  1.0790376e+00 2.34e-04 2.20e-03  -3.8 1.67e-02  -0.9 1.00e+00 1.00e+00h  1
  65  1.0765262e+00 2.83e-03 2.07e-03  -3.8 4.71e-02  -1.4 1.00e+00 1.00e+00h  1
  66  1.0756134e+00 2.23e-04 2.13e-03  -3.8 1.82e-02  -0.9 1.00e+00 1.00e+00h  1
  67  1.0737691e+00 2.32e-03 1.97e-03  -3.8 5.05e-02  -1.4 1.00e+00 1.00e+00h  1
  68  1.0731147e+00 1.99e-04 1.96e-03  -3.8 1.88e-02  -1.0 1.00e+00 1.00e+00h  1
  69  1.0718554e+00 1.88e-03 1.81e-03  -3.8 5.23e-02  -1.5 1.00e+00 1.00e+00h  1
iter    objective    inf_pr   inf_du lg(mu)  ||d||  lg(rg) alpha_du alpha_pr  ls
  70  1.0714102e+00 1.75e-04 1.77e-03  -3.8 1.92e-02  -1.0 1.00e+00 1.00e+00h  1
  71  1.0705836e+00 1.57e-03 1.65e-03  -3.8 5.34e-02  -1.5 1.00e+00 1.00e+00h  1
  72  1.0702851e+00 1.56e-04 1.60e-03  -3.8 1.94e-02  -1.1 1.00e+00 1.00e+00h  1
  73  1.0697414e+00 1.36e-03 1.49e-03  -3.8 5.44e-02  -1.6 1.00e+00 1.00e+00h  1
  74  1.0502302e+00 6.51e-04 1.86e-03  -5.7 2.53e-02  -1.1 9.71e-01 1.00e+00h  1
  75  1.0000001e+00 4.61e-03 1.80e-03  -5.7 7.37e-02  -1.6 1.00e+00 9.23e-01h  1
  76  1.0024048e+00 3.69e-05 3.41e-04  -5.7 5.25e-03  -1.2 1.00e+00 1.00e+00f  1
  77  1.0009612e+00 5.15e-06 5.91e-05  -5.7 2.73e-03  -1.7 1.00e+00 1.00e+00h  1
  78  1.0008053e+00 1.52e-07 3.12e-05  -5.7 5.39e-04  -1.2 1.00e+00 1.00e+00h  1
  79  1.0008034e+00 3.74e-07 1.98e-05  -5.7 1.03e-03  -1.7 1.00e+00 1.00e+00h  1
iter    objective    inf_pr   inf_du lg(mu)  ||d||  lg(rg) alpha_du alpha_pr  ls
  80  1.0008034e+00 5.20e-08 1.97e-05  -5.7 3.85e-04  -1.3 1.00e+00 1.00e+00h  1
  81  1.0008034e+00 7.31e-09 1.97e-05  -5.7 1.44e-04  -0.9 1.00e+00 1.00e+00h  1
  82  1.0008034e+00 6.57e-08 1.97e-05  -5.7 4.32e-04  -1.3 1.00e+00 1.00e+00h  1
  83  1.0008034e+00 9.22e-09 1.97e-05  -5.7 1.62e-04  -0.9 1.00e+00 1.00e+00h  1
  84  1.0008034e+00 8.29e-08 1.97e-05  -5.7 4.86e-04  -1.4 1.00e+00 1.00e+00h  1
  85  1.0008034e+00 1.16e-08 1.97e-05  -5.7 1.82e-04  -1.0 1.00e+00 1.00e+00h  1
  86  1.0008034e+00 1.05e-07 1.97e-05  -5.7 5.46e-04  -1.4 1.00e+00 1.00e+00h  1
  87  1.0008034e+00 1.47e-08 1.97e-05  -5.7 2.05e-04  -1.0 1.00e+00 1.00e+00h  1
  88  1.0008034e+00 1.32e-07 1.97e-05  -5.7 6.13e-04  -1.5 1.00e+00 1.00e+00h  1
  89  1.0008034e+00 1.85e-08 1.96e-05  -5.7 2.30e-04  -1.1 1.00e+00 1.00e+00h  1
iter    objective    inf_pr   inf_du lg(mu)  ||d||  lg(rg) alpha_du alpha_pr  ls
  90  1.0008034e+00 1.66e-07 1.96e-05  -5.7 6.89e-04  -1.5 1.00e+00 1.00e+00h  1
  91  1.0008034e+00 2.33e-08 1.96e-05  -5.7 2.58e-04  -1.1 1.00e+00 1.00e+00h  1
  92  1.0008034e+00 2.09e-07 1.96e-05  -5.7 7.73e-04  -1.6 1.00e+00 1.00e+00h  1
  93  1.0008034e+00 2.93e-08 1.96e-05  -5.7 2.90e-04  -1.2 1.00e+00 1.00e+00h  1
  94  1.0008034e+00 2.63e-07 1.95e-05  -5.7 8.68e-04  -1.6 1.00e+00 1.00e+00h  1
  95  1.0008034e+00 3.69e-08 1.95e-05  -5.7 3.25e-04  -1.2 1.00e+00 1.00e+00h  1
  96  1.0008034e+00 3.31e-07 1.95e-05  -5.7 9.75e-04  -1.7 1.00e+00 1.00e+00h  1
  97  1.0008034e+00 4.63e-08 1.95e-05  -5.7 3.65e-04  -1.3 1.00e+00 1.00e+00h  1
  98  1.0008034e+00 6.52e-09 1.95e-05  -5.7 1.37e-04  -0.8 1.00e+00 1.00e+00h  1
  99  1.0008034e+00 5.86e-08 1.95e-05  -5.7 4.10e-04  -1.3 1.00e+00 1.00e+00h  1
iter    objective    inf_pr   inf_du lg(mu)  ||d||  lg(rg) alpha_du alpha_pr  ls
 100  1.0008034e+00 8.22e-09 1.95e-05  -5.7 1.54e-04  -0.9 1.00e+00 1.00e+00h  1
 101  1.0008033e+00 1.50e-07 1.94e-05  -5.7 4.61e-04  -1.4 1.00e+00 1.00e+00h  1
 102  1.0008033e+00 3.00e-08 1.94e-05  -5.7 1.73e-04  -0.9 1.00e+00 1.00e+00h  1
 103  1.0008030e+00 1.01e-06 3.01e-05  -5.7 8.04e-04  -1.4 1.00e+00 1.00e+00h  1
 104  1.0008026e+00 2.11e-07 3.73e-05  -5.7 3.73e-04  -1.0 1.00e+00 1.00e+00h  1
 105  1.0008006e+00 8.81e-06 8.36e-05  -5.7 2.51e-03  -1.5 1.00e+00 1.00e+00h  1
 106  1.0007976e+00 1.85e-06 1.03e-04  -5.7 1.16e-03  -1.1 1.00e+00 1.00e+00h  1
 107  1.0007811e+00 8.32e-05 2.33e-04  -5.7 7.88e-03  -1.5 1.00e+00 1.00e+00h  1
 108  1.0007562e+00 1.32e-05 2.46e-04  -5.7 3.12e-03  -1.1 1.00e+00 1.00e+00h  1
 109  1.0006576e+00 2.50e-04 3.60e-04  -5.7 1.37e-02  -1.6 1.00e+00 1.00e+00h  1
iter    objective    inf_pr   inf_du lg(mu)  ||d||  lg(rg) alpha_du alpha_pr  ls
 110  1.0005728e+00 2.70e-05 3.11e-04  -5.7 4.43e-03  -1.2 1.00e+00 1.00e+00h  1
 111  1.0003990e+00 2.47e-04 3.26e-04  -5.7 1.39e-02  -1.6 1.00e+00 1.00e+00h  1
 112  1.0003528e+00 3.10e-05 3.03e-04  -5.7 4.86e-03  -1.2 1.00e+00 1.00e+00h  1
 113  1.0002410e+00 2.43e-04 2.88e-04  -5.7 1.38e-02  -1.7 1.00e+00 1.00e+00h  1
 114  1.0002274e+00 3.26e-05 2.84e-04  -5.7 5.12e-03  -1.3 1.00e+00 1.00e+00h  1
 115  1.0001596e+00 2.84e-04 2.77e-04  -5.7 1.50e-02  -1.7 1.00e+00 1.00e+00h  1
 116  1.0001509e+00 3.46e-05 2.60e-04  -5.7 5.27e-03  -1.3 1.00e+00 1.00e+00h  1
 117  1.0001461e+00 4.85e-06 2.59e-04  -5.7 1.97e-03  -0.9 1.00e+00 1.00e+00h  1
 118  1.0001298e+00 4.21e-05 2.53e-04  -5.7 5.78e-03  -1.4 1.00e+00 1.00e+00h  1
 119  1.0001249e+00 5.55e-06 2.46e-04  -5.7 2.10e-03  -0.9 1.00e+00 1.00e+00h  1
iter    objective    inf_pr   inf_du lg(mu)  ||d||  lg(rg) alpha_du alpha_pr  ls
 120  1.0001096e+00 4.76e-05 2.39e-04  -5.7 6.15e-03  -1.4 1.00e+00 1.00e+00h  1
 121  1.0001046e+00 6.26e-06 2.32e-04  -5.7 2.24e-03  -1.0 1.00e+00 1.00e+00h  1
 122  1.0000883e+00 5.39e-05 2.26e-04  -5.7 6.54e-03  -1.5 1.00e+00 1.00e+00h  1
 123  1.0000819e+00 7.12e-06 2.20e-04  -5.7 2.39e-03  -1.0 1.00e+00 1.00e+00h  1
 124  1.0000608e+00 6.29e-05 2.18e-04  -5.7 7.09e-03  -1.5 1.00e+00 1.00e+00h  1
 125  1.0000518e+00 8.43e-06 2.14e-04  -5.7 2.61e-03  -1.1 1.00e+00 1.00e+00h  1
 126  1.0000216e+00 8.27e-05 2.18e-04  -5.7 7.98e-03  -1.6 1.00e+00 1.00e+00h  1
 127  9.9999830e-01 1.41e-05 2.23e-04  -5.7 3.06e-03  -1.1 1.00e+00 1.00e+00h  1
 128  9.9999265e-01 2.01e-06 2.27e-04  -5.7 1.17e-03  -0.7 1.00e+00 1.00e+00h  1
 129  9.9996714e-01 2.05e-05 2.40e-04  -5.7 3.71e-03  -1.2 1.00e+00 1.00e+00h  1
iter    objective    inf_pr   inf_du lg(mu)  ||d||  lg(rg) alpha_du alpha_pr  ls
 130  9.9995563e-01 2.72e-06 2.47e-04  -5.7 1.43e-03  -0.8 1.00e+00 1.00e+00h  1
 131  9.9992275e-01 2.64e-05 2.69e-04  -5.7 4.66e-03  -1.2 1.00e+00 1.00e+00h  1
 132  9.9990815e-01 3.97e-06 2.83e-04  -5.7 1.84e-03  -0.8 1.00e+00 1.00e+00h  1
 133  9.9985285e-01 4.52e-05 3.22e-04  -5.7 6.29e-03  -1.3 1.00e+00 1.00e+00h  1
 134  9.9980917e-01 8.08e-06 3.00e-04  -5.7 2.13e-03  -0.9 1.00e+00 1.00e+00h  1
 135  9.9972268e-01 7.89e-05 3.78e-04  -5.7 8.52e-03  -1.3 1.00e+00 1.00e+00h  1
 136  9.9969361e-01 9.31e-06 4.81e-04  -5.7 2.55e-03  -0.9 1.00e+00 1.00e+00h  1
 137  9.9963039e-01 5.30e-05 1.18e-02  -5.7 1.44e-02  -1.4 6.08e-01 4.69e-01h  1
 138  9.9958737e-01 9.20e-06 2.90e-04  -5.7 2.69e-03  -1.0 1.00e+00 1.00e+00f  1
 139  9.9944929e-01 8.66e-05 2.74e-04  -5.7 8.18e-03  -1.4 1.00e+00 1.00e+00h  1
iter    objective    inf_pr   inf_du lg(mu)  ||d||  lg(rg) alpha_du alpha_pr  ls
 140  9.9941237e-01 1.43e-05 3.58e-04  -5.7 3.41e-03  -1.0 1.00e+00 1.00e+00h  1
 141  9.9928333e-01 1.29e-04 8.66e-04  -5.7 1.01e-02  -1.5 9.97e-01 9.53e-01h  1
 142  9.9923504e-01 1.53e-05 2.98e-04  -5.7 3.34e-03  -1.1 1.00e+00 1.00e+00f  1
 143  9.9914111e-01 5.46e-05 1.08e-02  -5.7 1.15e-02  -1.5 1.00e+00 5.67e-01h  1
 144  9.9908484e-01 1.58e-05 2.79e-04  -5.7 3.68e-03  -1.1 1.00e+00 1.00e+00f  1
 145  9.9891462e-01 1.56e-04 1.90e-03  -5.7 1.28e-02  -1.6 9.13e-01 7.98e-01h  1
 146  9.9880109e-01 3.35e-05 3.72e-04  -5.7 5.11e-03  -1.2 1.00e+00 1.00e+00f  1
 147  9.9868444e-01 8.54e-05 2.74e-03  -5.7 1.87e-02  -1.6 5.59e-01 3.59e-01h  1
 148  9.9860772e-01 3.80e-05 1.18e-02  -5.7 5.36e-03  -1.2 1.00e+00 7.71e-01f  1
 149  9.9837211e-01 2.80e-04 6.35e-03  -5.7 2.18e-02  -1.7 4.95e-01 6.95e-01f  1
iter    objective    inf_pr   inf_du lg(mu)  ||d||  lg(rg) alpha_du alpha_pr  ls
 150  9.9823755e-01 6.39e-05 3.02e-03  -5.7 6.21e-03  -1.3 1.00e+00 9.13e-01f  1
 151  9.9801401e-01 1.63e-04 1.46e-03  -5.7 1.95e-02  -1.8 6.42e-01 5.39e-01f  1
 152  9.9786145e-01 5.50e-05 3.29e-04  -5.7 6.05e-03  -1.3 1.00e+00 1.00e+00f  1
 153  9.9762924e-01 1.71e-04 3.61e-03  -5.7 2.21e-02  -1.8 6.64e-01 5.01e-01h  1
 154  9.9745261e-01 6.60e-05 3.37e-04  -5.7 7.43e-03  -1.4 1.00e+00 1.00e+00f  1
 155  9.9739539e-01 2.83e-04 4.92e-03  -5.7 1.43e-01  -1.9 4.88e-02 9.48e-02h  1
 156  9.9723828e-01 1.30e-04 6.14e-03  -5.7 8.95e-03  -1.4 1.00e+00 6.77e-01f  1
 157  9.9703534e-01 2.55e-04 4.56e-03  -5.7 3.91e-02  -1.9 3.14e-01 2.68e-01f  1
 158  9.9675868e-01 1.67e-04 3.60e-04  -5.7 1.08e-02  -1.5 1.00e+00 1.00e+00f  1
 159  9.9653772e-01 2.60e-04 4.70e-03  -5.7 4.46e-02  -2.0 4.08e-01 2.11e-01h  1
iter    objective    inf_pr   inf_du lg(mu)  ||d||  lg(rg) alpha_du alpha_pr  ls
 160  9.9627370e-01 1.80e-04 4.44e-03  -5.7 1.18e-02  -1.5 9.94e-01 7.72e-01f  1
 161  9.9585269e-01 4.07e-04 6.57e-03  -5.7 3.95e-02  -2.0 1.80e-01 3.95e-01f  1
 162  9.9557689e-01 2.45e-04 8.59e-03  -5.7 1.59e-02  -1.6 1.00e+00 6.56e-01f  1
 163  9.9530198e-01 3.91e-04 6.58e-03  -5.7 6.63e-02  -2.1 2.25e-01 1.84e-01f  1
 164  9.9505001e-01 2.89e-04 1.29e-02  -5.7 1.72e-02  -1.6 1.00e+00 4.95e-01f  1
 165  9.9453635e-01 8.20e-04 9.45e-03  -5.7 6.49e-02  -2.1 4.07e-01 3.22e-01f  1
 166  9.9358621e-01 1.69e-03 1.10e-02  -5.7 1.80e-01  -2.6 3.22e-01 1.85e-01h  1
 167  9.9094266e-01 8.54e-03 1.28e-02  -5.7 7.74e-01  -3.1 2.02e-01 1.20e-01h  1
 168  9.8993787e-01 7.49e-03 9.91e-03  -5.7 2.27e-01  -2.6 2.26e-01 1.77e-01h  1
 169  9.8895085e-01 4.69e-03 7.28e-03  -5.7 7.59e-02  -2.2 8.84e-01 4.26e-01h  1
iter    objective    inf_pr   inf_du lg(mu)  ||d||  lg(rg) alpha_du alpha_pr  ls
 170  9.8698957e-01 6.30e-03 4.82e-03  -5.7 2.28e-01  -2.7 4.52e-01 3.21e-01h  1
 171  9.8480764e-01 2.79e-03 8.27e-03  -5.7 8.75e-02  -2.3 4.81e-01 9.01e-01h  1
 172  9.8376688e-01 3.50e-04 4.65e-04  -5.7 3.19e-02  -1.8 9.51e-01 1.00e+00h  1
 173  9.8336229e-01 3.76e-04 5.47e-03  -5.7 9.55e-02  -2.3 8.25e-01 1.34e-01h  1
 174  9.8251355e-01 3.24e-04 3.48e-03  -5.7 3.32e-02  -1.9 1.00e+00 8.10e-01f  1
 175  9.8142671e-01 6.39e-04 4.13e-03  -5.7 1.06e-01  -2.4 9.57e-01 3.20e-01f  1
 176  9.8097430e-01 4.55e-04 8.56e-03  -5.7 3.76e-02  -1.9 9.47e-01 3.90e-01h  1
 177  9.8025971e-01 6.84e-04 5.67e-03  -5.7 1.24e-01  -2.4 3.22e-01 2.06e-01h  1
 178  9.7952102e-01 4.33e-04 7.24e-03  -5.7 4.23e-02  -2.0 9.53e-01 6.01e-01h  1
 179  9.7900705e-01 5.08e-04 5.06e-03  -5.7 1.27e-01  -2.5 3.70e-01 1.42e-01h  1
iter    objective    inf_pr   inf_du lg(mu)  ||d||  lg(rg) alpha_du alpha_pr  ls
 180  9.7803252e-01 4.78e-04 2.94e-03  -5.7 4.24e-02  -2.0 1.00e+00 7.30e-01f  1
 181  9.7758144e-01 4.96e-04 2.83e-03  -5.7 1.52e-01  -2.5 7.54e-02 1.05e-01h  1
 182  9.7616622e-01 7.37e-04 7.99e-04  -5.7 4.92e-02  -2.1 8.05e-01 9.09e-01f  1
 183  9.7546470e-01 9.87e-04 5.84e-04  -5.7 1.51e-01  -2.6 1.44e-01 1.55e-01h  1
 184  9.7429913e-01 7.61e-04 2.54e-03  -5.7 5.42e-02  -2.1 1.00e+00 6.73e-01f  1
 185  9.7400326e-01 7.39e-04 7.15e-03  -5.7 1.35e-01  -2.6 4.82e-01 6.64e-02h  1
 186  9.7324988e-01 5.61e-04 7.07e-03  -5.7 4.76e-02  -2.2 1.00e+00 4.59e-01f  1
 187  9.7182445e-01 1.09e-03 5.49e-03  -5.7 1.60e-01  -2.7 1.41e-01 2.84e-01h  1
 188  9.7044751e-01 8.87e-04 4.71e-03  -5.7 5.94e-02  -2.2 4.88e-01 7.44e-01f  1
 189  9.6909916e-01 2.48e-03 5.70e-03  -5.7 2.39e-01  -2.7 9.42e-02 1.87e-01f  1
iter    objective    inf_pr   inf_du lg(mu)  ||d||  lg(rg) alpha_du alpha_pr  ls
 190  9.6880904e-01 2.18e-03 7.89e-03  -5.7 6.26e-02  -2.3 4.09e-01 1.33e-01h  1
 191  9.6843492e-01 2.09e-03 7.49e-03  -5.7 2.96e-01  -2.8 4.81e-02 4.90e-02h  1
 192  9.6801451e-01 1.76e-03 6.41e-03  -5.7 7.95e-02  -2.3 3.85e-01 1.59e-01f  1
 193  9.6724142e-01 3.91e-04 2.88e-03  -5.7 2.58e-02  -1.9 1.00e+00 7.84e-01f  1
 194  9.6621921e-01 3.88e-04 1.76e-03  -5.7 7.39e-02  -2.4 5.39e-01 3.67e-01f  1
 195  9.6547968e-01 2.14e-04 3.71e-03  -5.7 2.62e-02  -2.0 1.00e+00 7.43e-01f  1
 196  9.6417993e-01 5.51e-04 2.07e-03  -5.7 8.77e-02  -2.5 4.42e-01 4.37e-01f  1
 197  9.6327802e-01 4.70e-04 2.59e-03  -5.7 3.69e-02  -2.0 1.00e+00 8.44e-01f  1
 198  9.6215355e-01 8.29e-04 2.43e-03  -5.7 9.68e-02  -2.5 5.65e-01 3.25e-01f  1
 199  9.6086201e-01 3.46e-04 2.80e-04  -5.7 3.33e-02  -2.1 1.00e+00 1.00e+00f  1
iter    objective    inf_pr   inf_du lg(mu)  ||d||  lg(rg) alpha_du alpha_pr  ls
 200  9.5801417e-01 2.09e-03 1.01e-03  -5.7 1.03e-01  -2.6 8.63e-01 6.97e-01h  1
 201  9.5636089e-01 5.47e-04 2.94e-04  -5.7 3.93e-02  -2.1 1.00e+00 1.00e+00h  1
 202  9.5584129e-01 5.53e-04 5.18e-03  -5.7 1.24e-01  -2.6 9.63e-01 1.02e-01h  1
 203  9.5402895e-01 7.24e-04 2.94e-04  -5.7 4.42e-02  -2.2 1.00e+00 1.00e+00h  1
 204  9.5292478e-01 8.54e-04 3.36e-03  -5.7 1.40e-01  -2.7 6.60e-01 1.89e-01h  1
 205  9.5078583e-01 9.91e-04 3.18e-04  -5.7 5.39e-02  -2.2 1.00e+00 1.00e+00h  1
 206  9.4947287e-01 1.14e-03 1.70e-03  -5.7 1.65e-01  -2.7 4.16e-01 1.89e-01h  1
 207  9.4738289e-01 1.13e-03 8.18e-04  -5.7 5.95e-02  -2.3 1.00e+00 8.10e-01f  1
 208  9.4425219e-01 3.46e-03 4.45e-04  -5.7 2.00e-01  -2.8 3.68e-01 3.83e-01h  1
 209  9.4372314e-01 2.95e-03 7.58e-03  -5.7 6.58e-02  -2.3 5.63e-01 1.68e-01h  1
iter    objective    inf_pr   inf_du lg(mu)  ||d||  lg(rg) alpha_du alpha_pr  ls
 210  9.4323303e-01 2.93e-03 7.42e-03  -5.7 2.66e-01  -2.8 6.35e-02 5.40e-02h  1
 211  9.4154973e-01 2.16e-03 5.85e-03  -5.7 6.81e-02  -2.4 2.27e-01 5.07e-01f  1
 212  9.4083603e-01 1.04e-03 5.52e-03  -5.7 2.93e-02  -2.0 4.00e-01 5.63e-01f  1
 213  9.3846669e-01 1.85e-03 2.18e-03  -5.7 8.19e-02  -2.4 6.06e-01 6.00e-01f  1
 214  9.3731067e-01 7.14e-04 3.82e-03  -5.7 3.05e-02  -2.0 1.00e+00 7.29e-01f  1
 215  9.3556692e-01 1.04e-03 2.34e-03  -5.7 1.06e-01  -2.5 4.86e-01 3.50e-01h  1
 216  9.3468970e-01 6.94e-04 2.89e-03  -5.7 3.54e-02  -2.1 8.52e-01 4.66e-01h  1
 217  9.3208173e-01 1.64e-03 2.53e-03  -5.7 1.18e-01  -2.5 2.71e-01 4.42e-01h  1
 218  9.3101182e-01 1.08e-03 4.39e-03  -5.7 4.04e-02  -2.1 7.51e-01 4.66e-01h  1
 219  9.2753639e-01 3.73e-03 2.83e-03  -5.7 1.43e-01  -2.6 5.86e-01 4.80e-01f  1
iter    objective    inf_pr   inf_du lg(mu)  ||d||  lg(rg) alpha_du alpha_pr  ls
 220  9.2459791e-01 1.87e-03 3.43e-04  -5.7 4.97e-02  -2.2 1.00e+00 1.00e+00h  1
 221  9.2242971e-01 2.77e-03 1.70e-03  -5.7 1.99e-01  -2.6 3.58e-01 2.13e-01h  1
 222  9.2123039e-01 2.23e-03 1.67e-03  -5.7 6.88e-02  -2.2 2.35e-01 3.28e-01h  1
 223  9.1901713e-01 3.77e-03 1.76e-03  -5.7 3.17e-01  -2.7 9.45e-02 1.65e-01h  1
 224  9.1836177e-01 3.30e-03 7.73e-03  -5.7 7.49e-02  -2.3 4.44e-01 1.43e-01h  1
 225  9.1607182e-01 3.68e-03 5.95e-03  -5.7 2.45e-01  -2.7 9.03e-02 1.51e-01h  1
 226  9.1387463e-01 3.43e-03 3.98e-03  -5.7 9.92e-02  -2.3 3.71e-01 4.04e-01h  1
 227  9.1171255e-01 9.37e-04 1.07e-03  -5.7 3.15e-02  -1.9 8.29e-01 1.00e+00h  1
 228  9.0784373e-01 3.71e-03 6.38e-04  -5.7 1.15e-01  -2.4 4.49e-01 5.56e-01h  1
 229  9.0565526e-01 1.71e-03 5.19e-04  -5.7 4.40e-02  -1.9 7.46e-01 7.73e-01h  1
iter    objective    inf_pr   inf_du lg(mu)  ||d||  lg(rg) alpha_du alpha_pr  ls
 230  9.0440923e-01 1.86e-03 6.96e-04  -5.7 1.53e-01  -2.4 1.31e-01 1.46e-01h  1
 231  9.0269936e-01 1.43e-03 3.73e-03  -5.7 4.59e-02  -2.0 1.00e+00 5.18e-01h  1
 232  9.0194649e-01 1.41e-03 3.32e-03  -5.7 1.31e-01  -2.5 9.36e-02 8.19e-02h  1
 233  8.9871872e-01 2.34e-03 2.14e-03  -5.7 5.21e-02  -2.0 5.28e-01 8.61e-01f  1
 234  8.9747649e-01 2.50e-03 1.60e-03  -5.7 1.83e-01  -2.5 2.35e-01 9.58e-02h  1
 235  8.9654722e-01 2.07e-03 2.91e-03  -5.7 6.09e-02  -2.1 1.96e-01 2.38e-01h  1
 236  8.9316917e-01 4.14e-03 1.90e-03  -5.7 2.10e-01  -2.6 1.68e-01 2.35e-01h  1
 237  8.9231355e-01 3.56e-03 2.91e-03  -5.7 8.24e-02  -2.1 2.90e-01 1.72e-01h  1
 238  8.9185211e-01 3.51e-03 9.26e-03  -5.7 3.53e-01  -2.6 1.12e-01 2.96e-02h  1
 239  8.9040172e-01 2.94e-03 3.94e-03  -5.7 8.63e-02  -2.2 6.21e-02 2.78e-01h  1
iter    objective    inf_pr   inf_du lg(mu)  ||d||  lg(rg) alpha_du alpha_pr  ls
 240  8.8907529e-01 1.41e-03 1.57e-03  -5.7 3.64e-02  -1.8 9.39e-01 6.48e-01f  1
 241  8.8832873e-01 1.36e-03 3.32e-03  -5.7 9.37e-02  -2.2 3.87e-01 1.28e-01h  1
 242  8.8722624e-01 9.42e-04 4.06e-03  -5.7 3.99e-02  -1.8 3.15e-01 5.49e-01h  1
 243  8.8579886e-01 1.27e-03 2.45e-03  -5.7 1.32e-01  -2.3 7.02e-01 2.24e-01h  1
 244  8.8459963e-01 1.19e-03 1.33e-03  -5.7 5.64e-02  -1.9 5.88e-01 5.33e-01h  1
 245  8.8241566e-01 3.40e-03 1.01e-03  -5.7 1.91e-01  -2.3 3.13e-01 3.05e-01h  1
 246  8.8154995e-01 2.68e-03 1.98e-02  -5.7 7.44e-02  -1.9 1.00e+00 3.90e-01h  1
 247  8.8085987e-01 2.79e-03 9.54e-03  -5.7 2.48e-01  -2.4 5.99e-01 8.85e-02h  1
 248  8.7951769e-01 2.15e-03 9.07e-03  -5.7 7.77e-02  -2.0 8.71e-01 5.43e-01h  1
 249  8.7854736e-01 2.33e-03 7.94e-03  -5.7 2.45e-01  -2.5 1.34e-01 1.23e-01h  1
iter    objective    inf_pr   inf_du lg(mu)  ||d||  lg(rg) alpha_du alpha_pr  ls
 250  8.7808104e-01 1.93e-03 6.36e-03  -5.7 7.82e-02  -2.0 3.71e-01 2.04e-01h  1
 251  8.7665647e-01 2.63e-03 5.41e-03  -5.7 2.63e-01  -2.5 1.39e-01 1.83e-01h  1
 252  8.7613064e-01 2.06e-03 5.19e-03  -5.7 7.02e-02  -2.1 1.49e-01 2.35e-01h  1
 253  8.7591461e-01 2.06e-03 1.55e-02  -5.7 2.33e+00  -2.6 7.41e-02 1.26e-02h  1
 254  8.7551360e-01 1.83e-03 5.75e-03  -5.7 9.85e-02  -2.1 5.89e-01 1.32e-01h  1
 255  8.7463280e-01 2.42e-03 7.35e-03  -5.7 3.79e-01  -2.6 1.81e-01 9.35e-02h  1
 256  8.7391885e-01 2.29e-03 4.92e-03  -5.7 1.02e-01  -2.2 3.75e-01 2.46e-01h  1
 257  8.7317488e-01 2.71e-03 9.94e-03  -5.7 3.77e-01  -2.7 3.93e-01 7.34e-02h  1
 258  8.7269191e-01 2.53e-03 8.39e-03  -5.7 1.21e-01  -2.2 1.34e-01 1.82e-01h  1
 259  8.7094079e-01 4.72e-03 7.04e-03  -5.7 4.90e-01  -2.7 1.54e-01 1.57e-01h  1
iter    objective    inf_pr   inf_du lg(mu)  ||d||  lg(rg) alpha_du alpha_pr  ls
 260  8.7022447e-01 4.19e-03 5.59e-03  -5.7 1.62e-01  -2.3 2.18e-01 1.98e-01h  1
 261  8.6860957e-01 6.25e-03 5.74e-03  -5.7 5.55e-01  -2.8 2.51e-01 1.35e-01h  1
 262  8.6793498e-01 5.20e-03 6.63e-03  -5.7 1.58e-01  -2.3 2.99e-01 1.95e-01h  1
 263  8.6753782e-01 5.11e-03 6.56e-03  -5.7 6.19e-01  -2.8 4.43e-02 3.00e-02h  1
 264  8.6605260e-01 5.54e-03 7.64e-03  -5.7 1.94e+00  -3.3 1.05e-02 3.38e-02h  1
 265  8.6603831e-01 5.54e-03 8.81e-03  -5.7 4.91e-01  -3.8 1.75e-02 1.30e-03h  1
 266  8.6587658e-01 5.54e-03 7.27e-03  -5.7 1.38e+01  -3.3 1.56e-03 4.69e-04h  1
 267  8.6592414e-01 5.12e-03 9.39e-03  -5.7 1.59e-01  -2.9 2.26e-02 7.85e-02h  1
 268  8.6488466e-01 5.49e-03 1.79e-02  -5.7 1.65e+00  -3.4 4.20e-03 2.55e-02h  1
 269  8.6456083e-01 5.49e-03 1.81e-02  -5.7 2.55e+00  -3.0 8.92e-03 5.50e-03h  1
iter    objective    inf_pr   inf_du lg(mu)  ||d||  lg(rg) alpha_du alpha_pr  ls
 270  8.6410297e-01 5.54e-03 1.70e-02  -5.7 7.21e+00  -3.4 6.64e-03 2.30e-03f  1
 271  8.6380817e-01 5.49e-03 1.67e-02  -5.7 1.26e+00  -3.0 3.04e-02 1.16e-02h  1
 272  8.6381924e-01 5.48e-03 1.74e-02  -5.7 3.35e-01  -3.5 4.18e-02 2.72e-03h  1
 273  8.6373887e-01 5.39e-03 1.88e-02  -5.7 2.20e-01  -4.0 3.66e-02 1.62e-02f  1
 274  8.6344123e-01 5.03e-03 1.95e-02  -5.7 2.28e-01  -2.6 1.49e-01 7.57e-02h  1
 275  8.6316908e-01 3.43e-03 1.61e-02  -5.7 4.53e-02  -2.2 5.19e-02 3.45e-01f  1
 276  8.6179172e-01 5.02e-03 1.37e-02  -5.7 3.22e-01  -2.7 5.14e-02 2.44e-01f  1
 277  8.6126640e-01 3.94e-03 8.99e-03  -5.7 1.16e-01  -2.3 3.21e-01 2.59e-01h  1
 278  8.6015773e-01 8.95e-03 7.75e-03  -5.7 8.03e-01  -2.7 1.15e-01 1.41e-01f  1
 279  8.5973880e-01 7.62e-03 6.47e-03  -5.7 1.29e-01  -2.3 1.15e-01 1.67e-01f  1
iter    objective    inf_pr   inf_du lg(mu)  ||d||  lg(rg) alpha_du alpha_pr  ls
 280  8.5938814e-01 7.89e-03 6.21e-03  -5.7 2.81e+00  -2.8 5.72e-03 1.22e-02h  1
 281  8.5837348e-01 6.43e-03 4.36e-03  -5.7 1.62e-01  -2.4 3.89e-01 2.96e-01f  1
 282  8.5790780e-01 6.61e-03 4.19e-03  -5.7 8.51e-01  -2.8 4.28e-02 3.13e-02h  1
 283  8.5769598e-01 6.24e-03 6.70e-03  -5.7 1.73e-01  -2.4 1.56e-01 6.18e-02h  1
 284  8.5713714e-01 6.41e-03 6.55e-03  -5.7 3.53e+00  -2.9 1.61e-02 1.68e-02h  1
 285  8.5700161e-01 6.06e-03 7.25e-03  -5.7 2.37e-01  -2.5 1.61e-01 5.81e-02h  1
 286  8.5677238e-01 4.92e-03 6.52e-03  -5.7 5.68e-02  -2.0 2.20e-01 1.94e-01f  1
 287  8.5604683e-01 4.20e-03 4.31e-03  -5.7 2.13e-01  -2.5 1.26e-01 2.29e-01h  1
 288  8.5550553e-01 2.53e-03 2.37e-03  -5.7 6.70e-02  -2.1 3.76e-01 4.52e-01f  1
 289  8.5538226e-01 2.45e-03 2.09e-03  -5.7 2.35e-01  -2.6 1.74e-01 3.94e-02h  1
iter    objective    inf_pr   inf_du lg(mu)  ||d||  lg(rg) alpha_du alpha_pr  ls
 290  8.5523168e-01 2.46e-03 2.08e-03  -5.7 1.24e+00  -3.0 1.20e-02 1.27e-02h  1
 291  8.5503779e-01 2.29e-03 1.87e-03  -5.7 2.16e-01  -2.6 1.14e-01 8.66e-02f  1
 292  8.5477010e-01 1.54e-03 2.51e-03  -5.7 6.24e-02  -2.2 2.29e-01 3.52e-01h  1
 293  8.5434197e-01 2.04e-03 2.30e-03  -5.7 3.58e-01  -2.7 9.60e-02 1.19e-01h  1
 294  8.5347468e-01 2.65e-03 3.30e-03  -5.7 8.19e-02  -2.2 3.69e-01 7.06e-01f  1
 295  8.5341549e-01 2.61e-03 3.51e-03  -5.7 4.28e-01  -2.7 2.43e-02 1.55e-02h  1
 296  8.5338878e-01 2.51e-03 1.13e-02  -5.7 4.26e-02  -2.3 6.66e-01 3.87e-02f  1
 297  8.5334197e-01 2.50e-03 1.16e-02  -5.7 1.03e+00  -2.8 3.04e-02 1.28e-02h  1
 298  8.5318463e-01 1.39e-03 6.30e-03  -5.7 3.48e-02  -2.3 4.36e-01 4.46e-01h  1
 299  8.5303503e-01 1.28e-04 1.79e-04  -5.7 1.50e-02  -1.9 1.00e+00 1.00e+00h  1
iter    objective    inf_pr   inf_du lg(mu)  ||d||  lg(rg) alpha_du alpha_pr  ls
 300  8.5289302e-01 3.21e-04 1.79e-03  -5.7 4.72e-02  -2.4 2.68e-01 4.41e-01h  1
 301  8.5271838e-01 2.22e-04 5.39e-04  -5.7 1.96e-02  -2.0 8.75e-01 1.00e+00f  1
 302  8.5244235e-01 6.33e-04 2.88e-04  -5.7 1.20e-01  -2.5 3.16e-01 2.70e-01h  1
 303  8.5223573e-01 4.46e-04 2.88e-03  -5.7 3.72e-02  -2.0 8.12e-01 5.80e-01f  1
 304  8.5192877e-01 8.54e-04 2.94e-03  -5.7 2.25e-01  -2.5 2.04e-01 1.40e-01f  1
 305  8.5141883e-01 9.78e-04 2.40e-03  -5.7 5.19e-02  -2.1 1.00e+00 7.71e-01f  1
 306  8.5078540e-01 1.66e-03 2.23e-03  -5.7 2.75e-01  -2.6 2.03e-01 1.64e-01f  1
 307  8.5053880e-01 1.36e-03 4.56e-03  -5.7 6.39e-02  -2.1 6.91e-01 2.23e-01h  1
 308  8.4929088e-01 2.91e-03 4.01e-03  -5.7 2.93e-01  -2.6 3.55e-01 2.74e-01h  1
 309  8.4913018e-01 2.17e-03 2.67e-03  -5.7 5.33e-02  -2.2 1.97e-01 2.63e-01h  1
iter    objective    inf_pr   inf_du lg(mu)  ||d||  lg(rg) alpha_du alpha_pr  ls
 310  8.4872539e-01 2.34e-03 1.75e-03  -5.7 5.12e-01  -2.7 1.40e-01 7.49e-02h  1
 311  8.4845917e-01 1.93e-03 3.34e-03  -5.7 7.36e-02  -2.2 4.11e-01 2.13e-01h  1
 312  8.4803682e-01 2.14e-03 4.28e-03  -5.7 3.01e-01  -2.7 1.79e-02 1.17e-01h  1
 313  8.4797998e-01 2.04e-03 3.95e-03  -5.7 7.63e-02  -2.3 3.60e-01 5.04e-02h  1
 314  8.4775097e-01 9.68e-04 9.37e-03  -5.7 2.03e-02  -1.9 1.00e+00 5.54e-01f  1
 315  8.4747125e-01 7.19e-04 4.41e-03  -5.7 5.48e-02  -2.3 2.33e-01 3.81e-01h  1
 316  8.4722665e-01 2.77e-04 1.27e-03  -5.7 2.18e-02  -1.9 8.45e-01 7.86e-01f  1
 317  8.4706830e-01 2.78e-04 1.27e-03  -5.7 6.66e-02  -2.4 2.26e-01 1.67e-01f  1
 318  8.4678508e-01 5.73e-04 1.14e-03  -5.7 4.87e-01  -2.9 3.74e-02 4.64e-02f  1
 319  8.4656792e-01 5.77e-04 1.90e-03  -5.7 8.86e-02  -2.4 3.55e-01 1.80e-01f  1
iter    objective    inf_pr   inf_du lg(mu)  ||d||  lg(rg) alpha_du alpha_pr  ls
 320  8.4646999e-01 6.25e-04 1.86e-03  -5.7 3.10e-01  -2.9 3.81e-02 3.61e-02h  1
 321  8.4643542e-01 6.36e-04 4.34e-03  -5.7 7.51e-01  -3.4 2.40e-02 6.05e-03h  1
 322  8.4636118e-01 7.06e-04 2.41e-03  -5.7 4.04e-01  -3.9 8.35e-03 2.68e-02f  1
 323  8.4635217e-01 6.41e-04 9.28e-03  -5.7 1.45e-02  -2.5 6.77e-01 9.23e-02f  1
 324  8.4633163e-01 5.41e-04 7.57e-03  -5.7 6.55e-02  -3.0 1.49e-01 1.73e-01f  1
 325  8.4626887e-01 5.56e-05 5.20e-04  -5.7 8.80e-03  -2.6 1.00e+00 9.60e-01f  1
 326  8.4626587e-01 1.08e-04 5.97e-04  -5.7 4.24e-01  -3.1 6.32e-02 1.83e-02f  2
 327  8.4626117e-01 1.43e-04 2.27e-03  -5.7 2.71e-02  -3.5 1.00e+00 3.31e-01h  1
 328  8.4626102e-01 1.48e-04 1.97e-03  -5.7 5.08e-02  -4.0 7.90e-02 1.77e-01f  2
 329  8.4625739e-01 2.17e-05 9.98e-06  -5.7 4.90e-03  -2.7 1.00e+00 1.00e+00h  1
iter    objective    inf_pr   inf_du lg(mu)  ||d||  lg(rg) alpha_du alpha_pr  ls
 330  8.4625647e-01 2.79e-05 3.72e-06  -5.7 5.48e-03  -3.2 1.00e+00 1.00e+00h  1
 331  8.4625662e-01 7.05e-05 1.90e-06  -5.7 8.39e-03  -3.6 1.00e+00 1.00e+00h  1
 332  8.4625677e-01 7.95e-06 2.60e-06  -5.7 3.91e-03  -3.2 1.00e+00 1.00e+00h  1
 333  8.4612886e-01 1.28e-05 3.31e-04  -8.6 5.77e-03  -2.8 6.94e-01 8.85e-01h  1
 334  8.4611586e-01 4.43e-06 2.24e-04  -8.6 2.67e-03  -2.4 7.69e-01 6.69e-01h  1
 335  8.4610996e-01 9.77e-07 1.95e-04  -8.6 1.15e-03  -1.9 7.75e-01 8.95e-01h  1
 336  8.4610904e-01 1.96e-06 7.85e-04  -8.6 2.72e-03  -2.4 1.00e+00 5.64e-01f  1
 337  8.4610829e-01 5.86e-07 9.68e-06  -8.6 9.52e-04  -2.0 1.00e+00 1.00e+00f  1
 338  8.4610724e-01 3.91e-06 2.43e-04  -8.6 6.39e-03  -2.5 1.00e+00 3.71e-01h  1
 339  8.4610726e-01 3.43e-06 4.46e-03  -8.6 6.87e-04  -2.9 1.00e+00 1.25e-01f  4
iter    objective    inf_pr   inf_du lg(mu)  ||d||  lg(rg) alpha_du alpha_pr  ls
 340  8.4610697e-01 6.38e-09 3.08e-07  -8.6 9.62e-05  -3.4 1.00e+00 1.00e+00h  1
 341  8.4610698e-01 4.04e-10 2.64e-09  -8.6 2.10e-05  -3.9 1.00e+00 1.00e+00h  1

Number of Iterations....: 341

                                   (scaled)                 (unscaled)
Objective...............:   8.4610697534300905e-01    8.4610697534300905e-01
Dual infeasibility......:   2.6355013651819409e-09    2.6355013651819409e-09
Constraint violation....:   4.0359143457791014e-10    4.0359143457791014e-10
Complementarity.........:   2.5100954882979686e-09    2.5100954882979686e-09
Overall NLP error.......:   2.6355013651819409e-09    2.6355013651819409e-09


Number of objective function evaluations             = 369
Number of objective gradient evaluations             = 324
Number of equality constraint evaluations            = 369
Number of inequality constraint evaluations          = 369
Number of equality constraint Jacobian evaluations   = 345
Number of inequality constraint Jacobian evaluations = 345
Number of Lagrangian Hessian evaluations             = 341
Total CPU secs in IPOPT (w/o function evaluations)   =      1.683
Total CPU secs in NLP function evaluations           =      0.243

EXIT: Optimal Solution Found.

************************ CUTEst statistics ************************


 Package used            :  IPOPT
 Problem                 :  KISSING   
 # variables             =             127
 # constraints           =             903
 # objective functions   =        0.6940000E+03
 # objective gradients   =        0.3250000E+03
 # objective Hessians    =        0.3390000E+03
 # Hessian-vector prdct  =        0.0000000E+00
 # constraints functions =        0.7160000E+03
 # constraints gradients =        0.3470000E+03
 # constraints Hessians  =        0.3390000E+03
 Exit code               =               0
 Final f                 =   0.8461070E+00
 Set up time             =            0.02 seconds
 Solve time              =            3.69 seconds


******************************************************************

System Time =       1.6059999466 s.
